c 
c U(n,d) graph
c graph gen seed     : 5650
c number of vertices : 80
c max number of edges: 3160
c Euclidean distance : 0.200000
c data structure     : sparse
c
c           Graph Stats
c number of vertices  : 80
c nonisolated vertices: 80
c number of edges     : 331
c edge density        : 0.104747
c max degree          : 13
c avg degree          : 8.28
c min degree          : 2
p col 80 331
e 1 80
e 1 79
e 1 64
e 1 51
e 1 49
e 1 41
e 1 37
e 1 16
e 1 11
e 1 7
e 2 77
e 2 76
e 2 62
e 2 52
e 2 48
e 2 38
e 2 25
e 2 15
e 2 3
e 3 77
e 3 76
e 3 62
e 3 52
e 3 38
e 3 26
e 3 25
e 3 15
e 4 72
e 4 69
e 4 66
e 4 57
e 4 34
e 4 28
e 4 13
e 4 10
e 5 70
e 5 63
e 5 47
e 5 45
e 5 44
e 5 40
e 5 31
e 5 23
e 5 22
e 5 21
e 5 19
e 6 80
e 6 58
e 6 55
e 6 29
e 6 27
e 6 11
e 6 9
e 7 80
e 7 79
e 7 64
e 7 55
e 7 51
e 7 41
e 7 37
e 7 27
e 7 16
e 7 11
e 8 73
e 8 71
e 8 61
e 8 50
e 8 36
e 8 26
e 8 17
e 9 80
e 9 79
e 9 65
e 9 55
e 9 53
e 9 35
e 9 29
e 9 11
e 10 75
e 10 69
e 10 57
e 10 28
e 10 20
e 10 13
e 11 80
e 11 79
e 11 64
e 11 55
e 11 51
e 11 41
e 11 37
e 11 27
e 11 16
e 12 78
e 12 67
e 12 48
e 12 43
e 12 39
e 12 30
e 13 75
e 13 69
e 13 68
e 13 60
e 13 57
e 13 28
e 14 74
e 14 72
e 14 66
e 14 65
e 14 53
e 14 35
e 14 34
e 14 32
e 15 77
e 15 76
e 15 62
e 15 52
e 15 48
e 15 38
e 15 25
e 16 64
e 16 55
e 16 51
e 16 49
e 16 41
e 16 37
e 17 74
e 17 72
e 17 71
e 17 61
e 17 53
e 17 52
e 17 42
e 17 36
e 17 26
e 17 25
e 18 77
e 18 62
e 18 46
e 18 38
e 18 20
e 19 73
e 19 70
e 19 56
e 19 44
e 19 40
e 19 22
e 19 21
e 20 62
e 20 46
e 21 70
e 21 44
e 21 40
e 21 23
e 21 22
e 22 73
e 22 71
e 22 70
e 22 61
e 22 50
e 22 47
e 22 45
e 22 44
e 22 40
e 22 31
e 24 59
e 24 33
e 25 76
e 25 74
e 25 72
e 25 66
e 25 62
e 25 52
e 25 26
e 26 71
e 26 61
e 26 52
e 26 36
e 27 80
e 27 55
e 28 75
e 28 69
e 28 68
e 28 60
e 28 57
e 29 80
e 29 79
e 29 65
e 30 78
e 30 77
e 30 67
e 30 48
e 30 43
e 30 39
e 31 70
e 31 63
e 31 47
e 31 45
e 31 40
e 32 54
e 32 49
e 32 34
e 33 59
e 34 74
e 34 72
e 34 66
e 34 65
e 34 53
e 34 35
e 35 74
e 35 72
e 35 66
e 35 65
e 35 53
e 35 42
e 36 71
e 36 61
e 36 52
e 36 50
e 37 80
e 37 79
e 37 64
e 37 55
e 37 51
e 37 49
e 37 41
e 38 78
e 38 77
e 38 76
e 38 62
e 38 48
e 38 46
e 39 78
e 39 77
e 39 67
e 39 48
e 39 43
e 40 71
e 40 70
e 40 63
e 40 61
e 40 50
e 40 47
e 40 45
e 40 44
e 41 80
e 41 79
e 41 64
e 41 55
e 41 51
e 41 49
e 42 74
e 42 72
e 42 66
e 42 65
e 42 53
e 43 78
e 43 77
e 43 67
e 43 48
e 44 73
e 44 71
e 44 70
e 44 61
e 44 56
e 44 50
e 44 45
e 45 70
e 45 63
e 45 61
e 45 50
e 45 47
e 46 77
e 46 62
e 47 70
e 47 63
e 47 50
e 48 78
e 48 77
e 48 76
e 49 79
e 49 51
e 50 71
e 50 70
e 50 61
e 51 80
e 51 79
e 51 64
e 51 55
e 52 76
e 53 74
e 53 72
e 53 66
e 53 65
e 54 68
e 54 60
e 54 57
e 55 80
e 55 79
e 55 64
e 56 73
e 56 58
e 57 75
e 57 69
e 57 68
e 57 60
e 58 73
e 60 75
e 60 69
e 60 68
e 61 73
e 61 71
e 61 70
e 62 77
e 62 76
e 63 70
e 64 80
e 65 79
e 65 74
e 65 72
e 66 74
e 66 72
e 68 75
e 68 69
e 69 75
e 70 71
e 71 73
e 72 74
e 76 77
e 77 78
e 79 80
